10
55
0 1 18 5.5
0 2 19 17
0 3 19 10
0 4 19 17
0 5 12 6
0 6 10 5
0 7 20 17
0 8 18 10
0 9 20 8
1 2 6 3
1 3 20 5.5
1 4 19 10
1 5 18 17
1 6 19 10
1 7 18 8
1 8 5 2
1 9 6 3
2 3 18 5.5
2 4 20 5.5
2 5 19 5.5
2 6 19 8
2 7 20 17
2 8 4 2
2 9 5 2
3 4 4 2
3 5 18 8
3 6 19 17
3 7 12 12
3 8 19 8
3 9 20 10
4 5 20 8
4 6 18 5.5
4 7 8 4
4 8 19 5.5
4 9 20 10
5 6 14 7
5 7 18 5.5
5 8 20 5.5
5 9 18 10
6 7 20 8
6 8 18 17
6 9 20 10
7 8 20 5.5
7 9 18 5.5
8 9 10 6
